proyfinal/src/viki/013/experimentInOfficeAgust.take6.output/4d9e37e6-6b6a-4894-a453-376665333ed5.als.dat
{'cnf.clauses': '118081',
 'cnf.totvars': '69608',
 'conflict literals': '56',
 'conflicts': '23',
 'decisions': '5083',
 'memused.mb': '17.44',
 'outcome': 'UNSAT',
 'propagations': '26651',
 'restarts': '1',
 'solver.msecs': 30,
 'task.msecs': 84}
