proyfinal/src/viki/013/experimentInOfficeAgust.take6.output/4d9e37e6-6b6a-4894-a453-376665333ed5.als.out
Reading from standard input... Use '--help' for help.
============================[ Problem Statistics ]=============================
|                                                                             |
|  Number of variables:         69608                                         |
|  Number of clauses:          118081                                         |
|  Parse time:                   0.02 s                                       |
|                                                                             |
============================[ Search Statistics ]==============================
| Conflicts |          ORIGINAL         |          LEARNT          | Progress |
|           |    Vars  Clauses Literals |    Limit  Clauses Lit/Cl |          |
===============================================================================
===============================================================================
restarts              : 1
conflicts             : 23             (748 /sec)
decisions             : 5083           (0.00 % random) (165408 /sec)
propagations          : 26651          (867263 /sec)
conflict literals     : 56             (0.00 % deleted)
Memory used           : 17.44 MB
CPU time              : 0.03073 s

UNSATISFIABLE
